(declare-fun temp5230_2 () (_ BitVec 64))
(declare-fun temp5230_1 () (_ BitVec 64))
(declare-fun temp5230_4 () (_ BitVec 64))
(declare-fun temp5230_3 () (_ BitVec 64))
(declare-fun temp5230_6 () (_ BitVec 64))
(declare-fun temp5230_5 () (_ BitVec 64))
(declare-fun temp5230_8 () (_ BitVec 64))
(declare-fun temp5230_7 () (_ BitVec 64))
(declare-fun temp5230_10 () (_ BitVec 64))
(declare-fun temp5230_9 () (_ BitVec 64))
(declare-fun temp5230_12 () (_ BitVec 64))
(declare-fun temp5230_11 () (_ BitVec 64))
(declare-fun temp5230_14 () (_ BitVec 64))
(declare-fun temp5230_13 () (_ BitVec 64))
(declare-fun temp5230_16 () (_ BitVec 64))
(declare-fun temp5230_15 () (_ BitVec 64))
(declare-fun temp5230_18 () (_ BitVec 64))
(declare-fun temp5230_17 () (_ BitVec 64))
(declare-fun temp5230_19 () (_ BitVec 64))
(declare-fun temp5230_20 () (_ BitVec 64))
(declare-fun temp5230_21 () (_ BitVec 64))
(declare-fun temp5230_22 () (_ BitVec 64))
(declare-fun temp5230_23 () (_ BitVec 64))
(declare-fun var66553 () (_ BitVec 64))
(declare-fun temp5230_24 () (_ BitVec 64))
(declare-fun var66557 () (_ BitVec 64))
(declare-fun temp5230_25 () (_ BitVec 64))
(declare-fun temp5230_26 () (_ BitVec 64))
(declare-fun var66617 () (_ BitVec 64))
(declare-fun temp5230_27 () (_ BitVec 64))
(declare-fun var66620 () (_ BitVec 64))
(declare-fun temp5230_28 () (_ BitVec 64))
(declare-fun temp5230_29 () (_ BitVec 64))
(declare-fun temp5230_30 () (_ BitVec 64))
(declare-fun temp5230_32 () (_ BitVec 64))
(declare-fun temp5230_31 () (_ BitVec 64))
(assert (= temp5230_2 #x0000000000000000))
(assert (= temp5230_1 temp5230_2))
(assert (= temp5230_4 #x0000000000000004))
(assert (= temp5230_3 temp5230_4))
(assert (= temp5230_6 #x0000000000000001))
(assert (= temp5230_5 temp5230_6))
(assert (= temp5230_8 #x0000000000000001))
(assert (= temp5230_7 temp5230_8))
(assert (= temp5230_10 #x0000000000000000))
(assert (= temp5230_9 temp5230_10))
(assert (= temp5230_12 #x0000000000000001))
(assert (= temp5230_11 temp5230_12))
(assert (= temp5230_14 #x0000000000000000))
(assert (= temp5230_13 temp5230_14))
(assert (= temp5230_16 #x0000000000000000))
(assert (= temp5230_15 temp5230_16))
(assert (= temp5230_18 #x0000000000000000))
(assert (= temp5230_17 temp5230_18))
(assert (= temp5230_19 #x0000000000000001))
(assert (= temp5230_20 #x0000000000000002))
(assert (= temp5230_21 #x0000000000000004))
(assert (= temp5230_22 #x0000000000000008))
(assert (or false
    (= temp5230_7 temp5230_19)
    (= temp5230_7 temp5230_20)
    (= temp5230_7 temp5230_21)
    (= temp5230_7 temp5230_22)))
(assert (= temp5230_23 #x0000000000000000))
(assert (= var66553 temp5230_23))
(assert (= temp5230_24 #x0000000000000000))
(assert (= var66557
   (ite (= var66553 temp5230_24) #x0000000000000001 #x0000000000000000)))
(assert (= temp5230_25 #x0000000000000001))
(assert (= var66557 temp5230_25))
(assert (= temp5230_26 #x0000000000000000))
(assert (= var66617 temp5230_26))
(assert (= temp5230_27 #x0000000000000000))
(assert (= var66620
   (ite (= var66617 temp5230_27) #x0000000000000001 #x0000000000000000)))
(assert (= temp5230_28 #x0000000000000001))
(assert (= var66620 temp5230_28))
(assert (= temp5230_29 #x0000000000000004))
(assert (= temp5230_30 #x0000000000000011))
(assert (or false (= temp5230_3 temp5230_29) (= temp5230_3 temp5230_30)))
(assert (= temp5230_32 #x0000000000000003))
(assert (= temp5230_31 temp5230_32))
(model-add temp5230_2 () (_ BitVec 64) #x0000000000000000)
(model-add temp5230_1 () (_ BitVec 64) #x0000000000000000)
(model-add temp5230_4 () (_ BitVec 64) #x0000000000000004)
(model-add temp5230_3 () (_ BitVec 64) #x0000000000000004)
(model-add temp5230_6 () (_ BitVec 64) #x0000000000000001)
(model-add temp5230_5 () (_ BitVec 64) #x0000000000000001)
(model-add temp5230_8 () (_ BitVec 64) #x0000000000000001)
(model-add temp5230_7 () (_ BitVec 64) #x0000000000000001)
(model-add temp5230_10 () (_ BitVec 64) #x0000000000000000)
(model-add temp5230_9 () (_ BitVec 64) #x0000000000000000)
(model-add temp5230_12 () (_ BitVec 64) #x0000000000000001)
(model-add temp5230_11 () (_ BitVec 64) #x0000000000000001)
(model-add temp5230_14 () (_ BitVec 64) #x0000000000000000)
(model-add temp5230_13 () (_ BitVec 64) #x0000000000000000)
(model-add temp5230_16 () (_ BitVec 64) #x0000000000000000)
(model-add temp5230_15 () (_ BitVec 64) #x0000000000000000)
(model-add temp5230_18 () (_ BitVec 64) #x0000000000000000)
(model-add temp5230_17 () (_ BitVec 64) #x0000000000000000)
(model-add temp5230_19 () (_ BitVec 64) #x0000000000000001)
(model-add temp5230_20 () (_ BitVec 64) #x0000000000000002)
(model-add temp5230_21 () (_ BitVec 64) #x0000000000000004)
(model-add temp5230_22 () (_ BitVec 64) #x0000000000000008)





